Running for instance ./models/r112.txt
Generating routes...
Execution time:  2.90127  seconds
Academic license - for non-commercial use only
Warning: constraint name "Cliente esta na rota x1" has a space
Optimize a model with 26 rows, 10000 columns and 54458 nonzeros
Variable types: 0 continuous, 10000 integer (0 binary)
Coefficient statistics:
  Matrix range     [1e+00, 1e+00]
  Objective range  [2e+01, 2e+02]
  Bounds range     [1e+00, 1e+00]
  RHS range        [1e+00, 2e+01]
Found heuristic solution: objective 781.0449703
Presolve removed 1 rows and 3327 columns
Presolve time: 0.06s
Presolved: 25 rows, 6673 columns, 29861 nonzeros
Variable types: 0 continuous, 6673 integer (6673 binary)

Root relaxation: objective 4.297616e+02, 107 iterations, 0.01 seconds

    Nodes    |    Current Node    |     Objective Bounds      |     Work
 Expl Unexpl |  Obj  Depth IntInf | Incumbent    BestBd   Gap | It/Node Time

     0     0  429.76157    0   23  781.04497  429.76157  45.0%     -    0s
H    0     0                     533.6300136  429.76157  19.5%     -    0s
H    0     0                     444.1434355  429.76157  3.24%     -    0s
     0     0  430.83005    0   19  444.14344  430.83005  3.00%     -    0s
     0     0  431.17576    0   20  444.14344  431.17576  2.92%     -    0s
     0     0  431.19672    0   20  444.14344  431.19672  2.91%     -    0s
     0     0  431.19672    0   20  444.14344  431.19672  2.91%     -    0s
     0     0  436.46937    0   16  444.14344  436.46937  1.73%     -    0s
H    0     0                     439.0494406  436.46937  0.59%     -    0s
*    0     0               0     437.9315967  437.93160  0.00%     -    0s

Explored 1 nodes (161 simplex iterations) in 0.14 seconds
Thread count was 8 (of 8 available processors)

Solution count 5: 437.932 439.049 444.143 ... 781.045

Optimal solution found (tolerance 1.00e-04)
Best objective 4.379315966568e+02, best bound 4.379315966568e+02, gap 0.0000%

Routes:
12 3 24 25 4
6 18 8 16 5 17
2 21 23 22 15 14 13
7 19 11 10 9 20 1

Distance: 437.931596657
Execution time:  3.89886  seconds
